n_res = 4;
rc = [ 19, 20, 26, 18 ];
n_tasks = 30;
d = [ 7, 10, 1, 10, 1, 4, 2, 5, 6, 4, 4, 6, 10, 2, 10, 8, 4, 1, 10, 8, 7, 8, 1, 3, 7, 5, 10, 4, 9, 8 ];
rr = [| 6, 3, 3, 0, 4, 5, 3, 0, 2, 10, 2, 5, 8, 1, 5, 0, 10, 6, 7, 1, 5, 2, 0, 6, 9, 0, 2, 0, 1, 0
      | 2, 0, 8, 0, 10, 2, 1, 8, 2, 6, 5, 0, 0, 9, 9, 10, 6, 7, 10, 0, 3, 1, 2, 0, 4, 8, 8, 9, 3, 3
      | 0, 0, 0, 3, 8, 7, 7, 7, 0, 10, 5, 10, 9, 10, 5, 0, 9, 0, 9, 9, 6, 0, 4, 10, 6, 1, 5, 4, 0, 1
      | 10, 8, 7, 7, 6, 0, 9, 0, 5, 0, 8, 2, 2, 4, 4, 4, 0, 0, 9, 4, 0, 10, 0, 8, 6, 1, 0, 6, 1, 1 |];
suc = [ { 2 }, 
        { 3 }, 
        { 4 }, 
        { 5 }, 
        { 6 }, 
        { 7 }, 
        { 8 }, 
        { 9 }, 
        { 10 }, 
        { 11 }, 
        { 12 }, 
        { 13 }, 
        { 14 }, 
        { 15 }, 
        { 16 }, 
        { 17 }, 
        { 18 }, 
        { 19 }, 
        { 20 }, 
        { 21 }, 
        { 22 }, 
        { 23 }, 
        { 24 }, 
        { 25 }, 
        { 26 }, 
        { 27 }, 
        { 28 }, 
        { 29 }, 
        { 30 }, 
        {  }]; 
